c 47_3_checker_6cl.cnf
c
c field = 47
c formula set type = 3_checker_6cl
c
p cnf 6 14
94 
96 
98 
-101 
-90 
-102 
95 
97 
99 
-100 
-91 
-103 
32 
62 
122 
-153 
-2 
-182 
33 
63 
123 
-152 
-3 
-183 
62 
122 
152 
-33 
-2 
-182 
63 
123 
153 
-32 
-3 
-183 
62 
122 
152 
-183 
-32 
-212 
63 
123 
153 
-182 
-33 
-213 
122 
152 
182 
-63 
-32 
-212 
123 
153 
183 
-62 
-33 
-213 
122 
152 
182 
-213 
-62 
-242 
123 
153 
183 
-212 
-63 
-243 
124 
156 
188 
-221 
-60 
-252 
125 
157 
189 
-220 
-61 
-253 
